
Log started (V20.1.0.0) Wed Apr 27 23:58:16 2022


Problem 'file.lp' read.
Read time = 0.02 sec. (0.00 ticks)
Version identifier: 20.1.0.0 | 2020-11-10 | 9bedb6d68
Bound infeasibility column 'producaoMensal#2'.
Presolve time = 0.00 sec. (0.00 ticks)
Presolve - Infeasible.
Solution time =    0.00 sec.
Deterministic time = 0.00 ticks  (0.87 ticks/sec)
No solution exists.

Log started (V20.1.0.0) Wed Apr 27 23:59:33 2022


Problem 'file.lp' read.
Read time = 0.00 sec. (0.00 ticks)
Version identifier: 20.1.0.0 | 2020-11-10 | 9bedb6d68
Bound infeasibility column 'producaoMensal#2'.
Presolve time = 0.00 sec. (0.00 ticks)

Root node processing (before b&c):
  Real time             =    0.02 sec. (0.00 ticks)
Parallel b&c, 6 threads:
  Real time             =    0.00 sec. (0.00 ticks)
  Sync time (average)   =    0.00 sec.
  Wait time (average)   =    0.00 sec.
                          ------------
Total (root+branch&cut) =    0.02 sec. (0.00 ticks)


MIP - Integer infeasible.
Current MIP best bound =  0.0000000000e+00 (gap is infinite)
Solution time =    0.02 sec.  Iterations = 0  Nodes = 0 (1)
Deterministic time = 0.00 ticks  (0.13 ticks/sec)

No integer feasible solution exists.

Log started (V20.1.0.0) Thu Apr 28 00:00:30 2022


Problem 'file.lp' read.
Read time = 0.00 sec. (0.00 ticks)
Version identifier: 20.1.0.0 | 2020-11-10 | 9bedb6d68
Found incumbent of value 1705.000000 after 0.00 sec. (0.00 ticks)
Tried aggregator 1 time.
MIP Presolve eliminated 4 rows and 4 columns.
All rows and columns eliminated.
Presolve time = 0.02 sec. (0.00 ticks)

Root node processing (before b&c):
  Real time             =    0.02 sec. (0.00 ticks)
Parallel b&c, 6 threads:
  Real time             =    0.00 sec. (0.00 ticks)
  Sync time (average)   =    0.00 sec.
  Wait time (average)   =    0.00 sec.
                          ------------
Total (root+branch&cut) =    0.02 sec. (0.00 ticks)

Solution pool: 1 solution saved.

MIP - Integer optimal solution:  Objective =  1.7050000000e+03
Solution time =    0.02 sec.  Iterations = 0  Nodes = 0 (1)
Deterministic time = 0.00 ticks  (0.23 ticks/sec)


Incumbent solution
Variable Name           Solution Value
producaoMensal#1             40.000000
producaoMensal#2             30.000000
producaoMensal#3             10.000000
producaoMensal#4             35.000000

Log started (V20.1.0.0) Thu Apr 28 00:03:00 2022


Problem 'file.lp' read.
Read time = 0.00 sec. (0.00 ticks)
Version identifier: 20.1.0.0 | 2020-11-10 | 9bedb6d68
Found incumbent of value 0.000000 after 0.00 sec. (0.00 ticks)

Root node processing (before b&c):
  Real time             =    0.00 sec. (0.00 ticks)
Parallel b&c, 6 threads:
  Real time             =    0.00 sec. (0.00 ticks)
  Sync time (average)   =    0.00 sec.
  Wait time (average)   =    0.00 sec.
                          ------------
Total (root+branch&cut) =    0.00 sec. (0.00 ticks)

Solution pool: 1 solution saved.

MIP - Integer optimal solution:  Objective =  0.0000000000e+00
Solution time =    0.02 sec.  Iterations = 0  Nodes = 0 (1)
Deterministic time = 0.00 ticks  (0.07 ticks/sec)


Incumbent solution
All variables matching '*' are 0.

Log started (V20.1.0.0) Thu Apr 28 00:04:49 2022


Problem 'file.lp' read.
Read time = 0.00 sec. (0.00 ticks)
Version identifier: 20.1.0.0 | 2020-11-10 | 9bedb6d68
Found incumbent of value 1705.000000 after 0.00 sec. (0.00 ticks)
Tried aggregator 1 time.
MIP Presolve eliminated 8 rows and 4 columns.
All rows and columns eliminated.
Presolve time = 0.00 sec. (0.00 ticks)

Root node processing (before b&c):
  Real time             =    0.00 sec. (0.00 ticks)
Parallel b&c, 6 threads:
  Real time             =    0.00 sec. (0.00 ticks)
  Sync time (average)   =    0.00 sec.
  Wait time (average)   =    0.00 sec.
                          ------------
Total (root+branch&cut) =    0.00 sec. (0.00 ticks)

Solution pool: 1 solution saved.

MIP - Integer optimal solution:  Objective =  1.7050000000e+03
Solution time =    0.00 sec.  Iterations = 0  Nodes = 0 (1)
Deterministic time = 0.00 ticks  (4.60 ticks/sec)


Incumbent solution
Variable Name           Solution Value
producaoMensal#1             40.000000
producaoMensal#2             30.000000
producaoMensal#3             10.000000
producaoMensal#4             35.000000
